NAME : tsp35_23.196.tour
COMMENT : Length = 196
COMMENT : Found by LKH [Keld Helsgaun]
TYPE : TOUR
DIMENSION : 35
TOUR_SECTION
1
17
8
30
11
10
33
35
32
13
19
15
24
16
2
5
6
14
9
7
27
34
31
22
29
28
12
21
25
18
4
26
3
23
20
-1
EOF
